133
10000
1434
2162
2532
742
4660
4095
402
1109
4812
796
1371
3674
202
226
2992
381
569
2272
4072
3234
725
709
1364
2726
3839
1554
2062
4269
3124
1071
494
549
2105
901
3141
981
1793
3334
2868
920
4039
3548
4343
2410
705
1601
1504
2120
1862
4427
461
2254
1811
1117
2444
1942
796
1
4493
1468
3975
2118
2892
4771
2520
4139
1894
642
867
1122
2644
965
2394
2371
3319
2190
700
1057
2409
4179
710
1870
1498
915
4915
3008
1556
3544
1488
2357
1918
3330
1711
2925
1977
3078
135
4003
870
2345
3644
2258
4976
4083
4597
1715
2287
1210
260
715
3098
2916
4299
640
4051
2206
2406
4357
938
2380
3787
84
4319
395
2493
4215
1839
3119
2148
3271
2229
3785
347
